
Gurobi 11.0.1 (win64) logging started Tue May 14 15:56:15 2024

Set parameter LogFile to value "output/solver_log4.txt"
Gurobi Optimizer version 11.0.1 build v11.0.1rc0 (win64 - Windows 11.0 (22631.2))

CPU model: 11th Gen Intel(R) Core(TM) i7-1165G7 @ 2.80GHz, instruction set [SSE2|AVX|AVX2|AVX512]
Thread count: 4 physical cores, 8 logical processors, using up to 8 threads

Optimize a model with 2401 rows, 516 columns and 45336 nonzeros
Model fingerprint: 0x5f642f95
Variable types: 248 continuous, 268 integer (268 binary)
Coefficient statistics:
  Matrix range     [4e-01, 1e+05]
  Objective range  [1e+00, 1e+02]
  Bounds range     [1e+00, 1e+00]
  RHS range        [1e-02, 1e+05]

User MIP start produced solution with objective 39752.6 (0.01s)
User MIP start produced solution with objective 39752.6 (0.01s)
Loaded user MIP start with objective 39752.6

Presolve removed 162 rows and 140 columns
Presolve time: 0.04s
Presolved: 2239 rows, 376 columns, 43660 nonzeros
Variable types: 234 continuous, 142 integer (138 binary)

Root relaxation: objective 4.510909e+04, 708 iterations, 0.04 seconds (0.08 work units)

    Nodes    |    Current Node    |     Objective Bounds      |     Work
 Expl Unexpl |  Obj  Depth IntInf | Incumbent    BestBd   Gap | It/Node Time

     0     0 45109.0852    0   14 39752.5635 45109.0852  13.5%     -    0s
     0     0 43142.8324    0   24 39752.5635 43142.8324  8.53%     -    0s
     0     0 42653.0864    0   22 39752.5635 42653.0864  7.30%     -    0s
     0     0 42653.0864    0   22 39752.5635 42653.0864  7.30%     -    0s
     0     0 42576.6159    0   25 39752.5635 42576.6159  7.10%     -    0s
     0     0 42307.5891    0   25 39752.5635 42307.5891  6.43%     -    0s
     0     0 42307.5891    0   24 39752.5635 42307.5891  6.43%     -    0s
     0     0 42016.6173    0   24 39752.5635 42016.6173  5.70%     -    0s
     0     0 42016.6173    0   25 39752.5635 42016.6173  5.70%     -    0s
     0     0 42016.6173    0   27 39752.5635 42016.6173  5.70%     -    0s
     0     0 42016.6173    0   27 39752.5635 42016.6173  5.70%     -    0s
     0     0 41877.3139    0   24 39752.5635 41877.3139  5.34%     -    0s
     0     0 41721.1421    0   29 39752.5635 41721.1421  4.95%     -    0s
     0     0 41721.1421    0   30 39752.5635 41721.1421  4.95%     -    0s
     0     0 41721.1421    0   31 39752.5635 41721.1421  4.95%     -    0s
     0     0 41721.1421    0   32 39752.5635 41721.1421  4.95%     -    0s
     0     0 41721.1421    0   33 39752.5635 41721.1421  4.95%     -    0s
     0     0 41721.1421    0   34 39752.5635 41721.1421  4.95%     -    0s
     0     0 41721.1421    0   34 39752.5635 41721.1421  4.95%     -    0s
     0     0 41721.1421    0   34 39752.5635 41721.1421  4.95%     -    1s
     0     2 41721.1421    0   34 39752.5635 41721.1421  4.95%     -    1s
*   59     7               9    39759.403552 39759.4036  0.00%   181    1s

Cutting planes:
  Gomory: 3
  Implied bound: 1
  MIR: 16
  RLT: 5
  Relax-and-lift: 1

Explored 67 nodes (13775 simplex iterations) in 1.68 seconds (2.88 work units)
Thread count was 8 (of 8 available processors)

Solution count 3: 39759.4 39759.4 39752.6 

Optimal solution found (tolerance 1.00e-04)
Best objective 3.975940355218e+04, best bound 3.975940355218e+04, gap 0.0000%
